22376.0
1 0 1 0 1 1 1 1 1 0 0 1 1 1 1 0 1 0 0 1 1 1 1 1 1 1 1 1 1 1 
7 19 21 27 2 12 21 27 22 28 4 28 13 13 28 7 13 20 22 0 27 16 5 24 23 27 27 19 29 2 19 19 4 16 27 6 20 8 24 16 7 8 6 4 8 19 13 21 19 14 24 16 24 16 8 6 11 8 22 25 29 0 7 8 13 11 5 14 28 25 7 12 19 8 23 23 20 23 8 16 23 0 26 25 29 13 6 5 27 7 28 6 25 25 2 13 11 6 0 28 28 21 25 7 4 0 4 24 22 13 19 4 27 12 12 8 28 7 14 8 26 11 28 19 26 16 2 11 26 0 28 24 25 20 23 8 13 13 28 14 12 22 11 11 25 5 24 21 27 25 24 0 23 0 8 11 2 16 13 13 13 27 23 24 5 27 5 4 13 21 5 20 19 14 26 2 0 20 29 20 5 21 2 19 12 8 28 23 0 21 2 21 6 4 7 12 7 21 23 19 